400 2677.0 4895.0 5278.3 5991.0 7070.0
600 2677.0 3903.0 4511.1 5026.0 6680.0
800 2334.0 3599.0 4028.35 4605.0 5030.0
1000 2334.0 3436.0 3797.15 4362.0 5026.0
1200 2170.0 3106.0 3415.65 3921.0 4534.0
1400 1719.0 2587.0 3119.1 3514.0 4428.0
1600 1558.0 2513.0 2762.5 3417.0 3855.0
1800 1298.0 2211.0 2504.85 2934.0 3832.0
2000 1152.0 2087.0 2311.25 2732.0 3591.0
2200 1084.0 1686.0 2055.8 2342.0 3556.0
2400 806.0 1434.0 1903.15 2419.0 2990.0
2600 806.0 1153.0 1664.8 1949.0 2990.0
2800 806.0 1047.0 1500.3 1740.0 2686.0
3000 806.0 1047.0 1415.45 1725.0 2585.0
3200 819.0 1047.0 1417.0 1740.0 2585.0
3400 535.0 1123.0 1308.75 1485.0 2585.0
3600 535.0 952.0 1177.1 1377.0 1782.0
3800 535.0 920.0 1064.85 1314.0 1540.0
4000 490.0 920.0 1011.4 1181.0 1593.0
4200 490.0 787.0 899.45 1053.0 1227.0
4400 490.0 734.0 835.95 1028.0 1146.0
4600 490.0 734.0 823.2 1009.0 1146.0
4800 490.0 714.0 799.2 988.0 1257.0
5000 489.0 655.0 764.6 883.0 1257.0
5200 489.0 577.0 716.35 872.0 1157.0
5400 438.0 575.0 716.35 872.0 1157.0
5600 438.0 564.0 678.0 789.0 1157.0
5800 438.0 557.0 679.75 872.0 1157.0
6000 425.0 557.0 655.1 778.0 970.0
6200 425.0 557.0 635.05 725.0 883.0
6400 425.0 557.0 630.3 725.0 883.0
6600 425.0 557.0 628.2 724.0 883.0
6800 425.0 502.0 616.05 688.0 883.0
7000 395.0 502.0 611.7 688.0 883.0
7200 395.0 502.0 604.35 688.0 883.0
7400 395.0 502.0 605.2 719.0 883.0
7600 395.0 502.0 605.2 719.0 883.0
7800 395.0 502.0 605.2 719.0 883.0
8000 395.0 502.0 602.8 719.0 883.0
8200 395.0 502.0 590.05 688.0 883.0
8400 395.0 502.0 585.85 682.0 883.0
8600 395.0 489.0 577.0 682.0 883.0
8800 395.0 487.0 579.45 682.0 883.0
9000 395.0 487.0 578.1 682.0 883.0
9200 395.0 487.0 578.1 682.0 883.0
9400 395.0 487.0 577.95 682.0 883.0
9600 395.0 487.0 563.9 634.0 883.0
9800 395.0 487.0 563.9 634.0 883.0
10000 395.0 487.0 563.9 634.0 883.0
10200 395.0 487.0 563.9 634.0 883.0
10400 395.0 487.0 558.2 631.0 883.0
10600 395.0 484.0 545.4 614.0 852.0
10800 395.0 484.0 545.4 614.0 852.0
11000 395.0 484.0 545.4 614.0 852.0
11200 395.0 484.0 545.4 614.0 852.0
11400 395.0 484.0 545.4 614.0 852.0
11600 395.0 484.0 533.7 614.0 682.0
11800 395.0 484.0 533.7 614.0 682.0
12000 395.0 484.0 527.2 578.0 676.0
12200 395.0 484.0 527.2 578.0 676.0
12400 395.0 484.0 527.2 578.0 676.0
12600 395.0 484.0 527.2 578.0 676.0
12800 395.0 484.0 527.2 578.0 676.0
13000 395.0 484.0 527.2 578.0 676.0
13200 395.0 484.0 527.2 578.0 676.0
13400 395.0 484.0 526.55 578.0 676.0
13600 395.0 484.0 526.55 578.0 676.0
13800 395.0 484.0 526.55 578.0 676.0
14000 395.0 484.0 526.55 578.0 676.0
14200 395.0 484.0 526.55 578.0 676.0
14400 377.0 463.0 510.3 575.0 618.0
14600 377.0 432.0 500.4 568.0 618.0
14800 377.0 432.0 500.4 568.0 618.0
15000 377.0 432.0 500.4 568.0 618.0
15200 377.0 432.0 500.4 568.0 618.0
15400 377.0 432.0 500.4 568.0 618.0
15600 377.0 432.0 500.4 568.0 618.0
15800 377.0 432.0 500.4 568.0 618.0
16000 377.0 432.0 500.4 568.0 618.0
16200 377.0 432.0 500.4 568.0 618.0
16400 377.0 432.0 500.4 568.0 618.0
16600 377.0 432.0 498.45 562.0 618.0
16800 377.0 432.0 498.45 562.0 618.0
17000 377.0 432.0 498.45 562.0 618.0
17200 377.0 432.0 498.45 562.0 618.0
17400 377.0 432.0 498.45 562.0 618.0
17600 377.0 432.0 497.25 562.0 618.0
17800 377.0 432.0 497.25 562.0 618.0
18000 377.0 432.0 497.25 562.0 618.0
18200 377.0 425.0 494.8 562.0 618.0
18400 377.0 425.0 494.8 562.0 618.0
18600 377.0 425.0 494.8 562.0 618.0
18800 377.0 425.0 494.8 562.0 618.0
19000 377.0 425.0 494.8 562.0 618.0
19200 377.0 425.0 494.8 562.0 618.0
19400 377.0 425.0 494.05 562.0 618.0
19600 377.0 425.0 494.05 562.0 618.0
19800 377.0 425.0 492.55 562.0 618.0
20000 377.0 425.0 492.55 562.0 618.0
20200 377.0 425.0 492.55 562.0 618.0
20400 377.0 425.0 492.55 562.0 618.0
20600 377.0 425.0 492.55 562.0 618.0
20800 377.0 421.0 491.25 562.0 618.0
21000 377.0 421.0 491.25 562.0 618.0
21200 377.0 421.0 491.25 562.0 618.0
21400 377.0 421.0 487.7 557.0 578.0
21600 313.0 414.0 474.45 550.0 575.0
21800 313.0 414.0 474.45 550.0 575.0
22000 260.0 414.0 463.8 547.0 575.0
22200 260.0 414.0 463.8 547.0 575.0
22400 260.0 414.0 460.0 526.0 568.0
22600 260.0 414.0 460.0 526.0 568.0
22800 260.0 414.0 460.0 526.0 568.0
23000 260.0 414.0 460.0 526.0 568.0
23200 260.0 414.0 452.8 502.0 568.0
23400 260.0 414.0 452.8 502.0 568.0
23600 260.0 414.0 452.8 502.0 568.0
23800 260.0 414.0 452.8 502.0 568.0
24000 260.0 414.0 452.8 502.0 568.0
24200 260.0 414.0 448.05 499.0 568.0
24400 260.0 414.0 448.05 499.0 568.0
24600 260.0 414.0 448.05 499.0 568.0
24800 260.0 414.0 448.05 499.0 568.0
25000 260.0 414.0 447.5 499.0 568.0
25200 260.0 414.0 447.5 499.0 568.0
25400 260.0 414.0 447.5 499.0 568.0
25600 260.0 414.0 447.5 499.0 568.0
25800 260.0 414.0 444.9 499.0 568.0
26000 260.0 414.0 444.9 499.0 568.0
26200 260.0 414.0 444.9 499.0 568.0
26400 260.0 407.0 443.35 499.0 568.0
26600 260.0 407.0 443.35 499.0 568.0
26800 260.0 407.0 440.45 499.0 568.0
27000 260.0 407.0 440.45 499.0 568.0
27200 260.0 407.0 440.45 499.0 568.0
27400 260.0 390.0 434.9 499.0 568.0
27600 260.0 390.0 434.9 499.0 568.0
27800 260.0 390.0 434.0 499.0 568.0
28000 260.0 390.0 434.0 499.0 568.0
28200 260.0 390.0 433.4 496.0 568.0
28400 260.0 390.0 433.4 496.0 568.0
28600 260.0 390.0 433.4 496.0 568.0
28800 260.0 388.0 429.65 496.0 568.0
29000 260.0 388.0 429.65 496.0 568.0
29200 260.0 388.0 429.65 496.0 568.0
29400 260.0 388.0 429.65 496.0 568.0
29600 260.0 388.0 429.65 496.0 568.0
29800 260.0 388.0 429.65 496.0 568.0
30000 260.0 388.0 429.65 496.0 568.0
30200 260.0 388.0 426.1 496.0 568.0
30400 260.0 388.0 426.1 496.0 568.0
30600 260.0 388.0 426.1 496.0 568.0
30800 260.0 388.0 426.1 496.0 568.0
31000 260.0 388.0 426.1 496.0 568.0
31200 260.0 388.0 426.1 496.0 568.0
31400 260.0 388.0 426.1 496.0 568.0
31600 260.0 388.0 426.1 496.0 568.0
31800 260.0 388.0 426.1 496.0 568.0
32000 260.0 388.0 426.1 496.0 568.0
32200 260.0 388.0 426.1 496.0 568.0
32400 260.0 388.0 426.05 496.0 568.0
32600 260.0 388.0 426.05 496.0 568.0
32800 260.0 388.0 426.05 496.0 568.0
33000 260.0 388.0 421.9 496.0 568.0
33200 260.0 388.0 421.9 496.0 568.0
33400 260.0 388.0 421.9 496.0 568.0
33600 260.0 388.0 421.9 496.0 568.0
33800 260.0 388.0 421.9 496.0 568.0
34000 260.0 388.0 421.9 496.0 568.0
34200 260.0 377.0 415.5 461.0 568.0
34400 260.0 377.0 415.5 461.0 568.0
34600 260.0 377.0 413.4 461.0 568.0
34800 260.0 377.0 413.4 461.0 568.0
35000 260.0 377.0 412.25 461.0 568.0
35200 260.0 377.0 412.25 461.0 568.0
35400 260.0 377.0 412.25 461.0 568.0
35600 260.0 377.0 412.25 461.0 568.0
35800 260.0 377.0 412.25 461.0 568.0
36000 260.0 368.0 400.85 440.0 549.0
36200 260.0 368.0 399.15 440.0 515.0
36400 260.0 368.0 399.15 440.0 515.0
36600 260.0 368.0 399.15 440.0 515.0
36800 260.0 368.0 399.15 440.0 515.0
37000 260.0 368.0 399.15 440.0 515.0
37200 260.0 368.0 399.15 440.0 515.0
37400 260.0 368.0 399.15 440.0 515.0
37600 260.0 368.0 399.15 440.0 515.0
37800 260.0 368.0 399.15 440.0 515.0
38000 260.0 368.0 399.15 440.0 515.0
38200 260.0 368.0 399.15 440.0 515.0
38400 260.0 368.0 399.15 440.0 515.0
38600 260.0 368.0 399.15 440.0 515.0
38800 260.0 368.0 399.15 440.0 515.0
39000 260.0 368.0 391.7 426.0 515.0
39200 260.0 368.0 391.7 426.0 515.0
39400 260.0 368.0 391.7 426.0 515.0
39600 260.0 368.0 391.7 426.0 515.0
39800 260.0 368.0 391.7 426.0 515.0
40000 260.0 368.0 391.7 426.0 515.0
40200 260.0 345.0 388.25 426.0 515.0
